experiments/eusolverbv/2/DirectTrainGenes/1101000010100101110000011111100000101100001/123_.sl

(set-logic BV)

(define-fun shr1 ((x (BitVec 64))) (BitVec 64) (bvlshr x #x0000000000000001))
(define-fun shr4 ((x (BitVec 64))) (BitVec 64) (bvlshr x #x0000000000000004))
(define-fun shr16 ((x (BitVec 64))) (BitVec 64) (bvlshr x #x0000000000000010))
(define-fun shl1 ((x (BitVec 64))) (BitVec 64) (bvshl x #x0000000000000001))
(define-fun if0 ((x (BitVec 64)) (y (BitVec 64)) (z (BitVec 64))) (BitVec 64) (ite (= x #x0000000000000001) y z))
(define-fun func23  ((A (BitVec 64)) (B (BitVec 64)) (C (BitVec 64)) (D (BitVec 64)) ) (BitVec 64) (bvand (bvlshr (bvlshr C  D ) B ) A ))
(define-fun func24  ((A (BitVec 64)) (B (BitVec 64)) (C (BitVec 64)) ) (BitVec 64) (bvand (bvlshr B  C ) A ))
(define-fun func25  ((A (BitVec 64)) (B (BitVec 64)) ) (BitVec 64) (bvand (bvlshr B  #x0000000000000001 ) A ))
(define-fun func26  ((A (BitVec 64)) (B (BitVec 64)) ) (BitVec 64) (bvand (bvlshr B  #x0000000000000010 ) A ))
(define-fun func27  ((A (BitVec 64)) (B (BitVec 64)) ) (BitVec 64) (bvand (bvlshr B  #x0000000000000004 ) A ))
(define-fun func28  ((A (BitVec 64)) (B (BitVec 64)) ) (BitVec 64) (bvand (bvlshr A  B ) #x0000000000000001 ))
(define-fun func29  ((A (BitVec 64)) ) (BitVec 64) (bvand A  #x0000000000000001 ))
(define-fun func30  ((A (BitVec 64)) (B (BitVec 64)) (C (BitVec 64)) (D (BitVec 64)) ) (BitVec 64) (bvlshr (bvlshr (bvlshr C  D ) B ) A ))
(define-fun func31  ((A (BitVec 64)) (B (BitVec 64)) (C (BitVec 64)) ) (BitVec 64) (bvlshr (bvlshr (bvlshr C  #x0000000000000010 ) B ) A ))
(define-fun func32  ((A (BitVec 64)) (B (BitVec 64)) (C (BitVec 64)) ) (BitVec 64) (bvlshr (bvlshr B  C ) A ))
(define-fun func33  ((A (BitVec 64)) (B (BitVec 64)) ) (BitVec 64) (bvlshr (bvlshr B  #x0000000000000010 ) A ))
(define-fun func34  ((A (BitVec 64)) (B (BitVec 64)) ) (BitVec 64) (bvlshr (bvlshr B  #x0000000000000004 ) A ))
(define-fun func35  ((A (BitVec 64)) (B (BitVec 64)) ) (BitVec 64) (bvlshr (bvlshr B  #x0000000000000001 ) A ))
(define-fun func36  ((A (BitVec 64)) (B (BitVec 64)) ) (BitVec 64) (bvlshr (bvlshr A  B ) #x0000000000000001 ))
(define-fun func37  ((A (BitVec 64)) (B (BitVec 64)) ) (BitVec 64) (bvlshr (bvlshr A  B ) #x0000000000000004 ))
(define-fun func38  ((A (BitVec 64)) (B (BitVec 64)) ) (BitVec 64) (bvlshr A  B ))
(define-fun func39  ((A (BitVec 64)) (B (BitVec 64)) (C (BitVec 64)) ) (BitVec 64) (bvlshr (bvshl B  C ) A ))
(define-fun func40  ((A (BitVec 64)) (B (BitVec 64)) ) (BitVec 64) (bvlshr (bvshl B  #x0000000000000001 ) A ))
(define-fun func41  ((A (BitVec 64)) (B (BitVec 64)) (C (BitVec 64)) ) (BitVec 64) (bvlshr (bvadd B  C ) A ))
(define-fun func42  ((A (BitVec 64)) (B (BitVec 64)) ) (BitVec 64) (bvlshr (bvnot B ) A ))
(define-fun func43  ((A (BitVec 64)) ) (BitVec 64) (bvlshr (bvnot A ) #x0000000000000010 ))
(define-fun func44  ((A (BitVec 64)) (B (BitVec 64)) (C (BitVec 64)) ) (BitVec 64) (bvor (bvlshr B  C ) A ))
(define-fun func45  ((A (BitVec 64)) ) (BitVec 64) (bvor A  #x0000000000000001 ))
(define-fun func46  ((A (BitVec 64)) (B (BitVec 64)) (C (BitVec 64)) ) (BitVec 64) (bvshl (bvlshr B  C ) A ))
(define-fun func47  ((A (BitVec 64)) (B (BitVec 64)) ) (BitVec 64) (bvshl (bvlshr B  #x0000000000000001 ) A ))
(define-fun func48  ((A (BitVec 64)) (B (BitVec 64)) ) (BitVec 64) (bvshl (bvlshr A  B ) #x0000000000000001 ))
(define-fun func50  ((A (BitVec 64)) (B (BitVec 64)) ) (BitVec 64) (bvshl (bvnot B ) A ))
(define-fun func51  ((A (BitVec 64)) ) (BitVec 64) (bvshl (bvnot A ) #x0000000000000001 ))
(define-fun func52  ((A (BitVec 64)) (B (BitVec 64)) (C (BitVec 64)) ) (BitVec 64) (bvadd (bvlshr B  C ) A ))
(define-fun func53  ((A (BitVec 64)) ) (BitVec 64) (bvadd A  #x0000000000000001 ))
(define-fun func54  ((A (BitVec 64)) (B (BitVec 64)) (C (BitVec 64)) ) (BitVec 64) (bvadd (bvshl B  C ) A ))
(define-fun func55  ((A (BitVec 64)) (B (BitVec 64)) ) (BitVec 64) (bvadd (bvshl B  #x0000000000000001 ) A ))
(define-fun func56  ((A (BitVec 64)) ) (BitVec 64) (bvnot (bvshl A  #x0000000000000001 )))
(synth-fun f ( (x (BitVec 64))) (BitVec 64)
(
(Start (BitVec 64) (
   #x0000000000000000
   #x0000000000000001
   x
   (func23 Start Start Start Start)
   (func24 Start Start Start)
   (func26 Start Start)
   (func31 Start Start Start)
   (func33 Start Start)
   (func36 Start Start)
   (func38 Start Start)
   (func39 Start Start Start)
   (func40 Start Start)
   (func46 Start Start Start)
   (func47 Start Start)
   (func48 Start Start)
   (func50 Start Start)
   (func51 Start)
   (func52 Start Start Start)
   (bvnot Start)
   (shr1 Start)
   (bvand Start Start)
   (bvor Start Start)
   (bvxor Start Start)
   (bvadd Start Start)
   (if0 Start Start Start)
))
))
(constraint (= (f #x9d9ee93d82adc32a) #x000009d9ee93d82a))
(constraint (= (f #x9016eb224d58d8a2) #x000009016eb224d5))
(constraint (= (f #xe2a685c3e36db97c) #x00000e2a685c3e36))
(constraint (= (f #x37ec9bad550b1d28) #x0000037ec9bad550))
(constraint (= (f #x8797634156a6a424) #x000008797634156a))
(constraint (= (f #x9f5587b5798facf5) #xfffffffffffffffc))
(constraint (= (f #x3acc30ee9a0a52c1) #xfffffffffffffffc))
(constraint (= (f #x5363bd48d58a798d) #xfffffffffffffffc))
(constraint (= (f #x68fc4b97589b8a6f) #xffffffffffffffe0))
(constraint (= (f #xe9ac2af59ce12a87) #xfffffffffffffff0))
(constraint (= (f #x5212954a50145529) #xfffffffffffffffc))
(constraint (= (f #x15254448a2954925) #xfffffffffffffffc))
(constraint (= (f #x88a8a42292a88291) #xfffffffffffffffc))
(constraint (= (f #x40128524a8a20a21) #xfffffffffffffffc))
(constraint (= (f #x2055524000854081) #xfffffffffffffffc))
(constraint (= (f #x0000000000000001) #xfffffffffffffffc))
(constraint (= (f #x2794b4f64d1e5bb1) #xfffffffffffffffc))
(constraint (= (f #x5ec17fdead41c85e) #x000005ec17fdead4))
(constraint (= (f #xa34c10be71aefd89) #xfffffffffffffffc))
(constraint (= (f #x2cbc31e94a103b0d) #xfffffffffffffffc))
(constraint (= (f #xb185be02ac1733e7) #xfffffffffffffff0))
(constraint (= (f #xf247d15909bc11b5) #xfffffffffffffffc))
(constraint (= (f #x803b822b014b7d77) #xfffffffffffffff0))
(constraint (= (f #x7863ac8ff76d2022) #x000007863ac8ff76))
(constraint (= (f #xa7f4dfb36702cee8) #x00000a7f4dfb3670))
(constraint (= (f #x69b6bffca972ee7c) #x0000069b6bffca97))
(constraint (= (f #x0000000000000001) #xfffffffffffffffc))
(constraint (= (f #x5545215450904905) #xfffffffffffffffc))
(constraint (= (f #x4964a5f436f5ecc0) #x000004964a5f436f))
(constraint (= (f #x48c8291f3756ab62) #x0000048c8291f375))
(constraint (= (f #x806907508d4ac673) #xfffffffffffffff8))
(constraint (= (f #x4618aaf5db60b11f) #xffffffffffffffc0))
(check-synth)
