experiments/eusolverbv/2/DirectTrainGenes/1101000010100101110000011111100000101100001/123_.out
(define-fun f ((x (BitVec 64))) (BitVec 64)
     (if0 (bvand x #x0000000000000001) (bvnot (bvxor (bvadd x #x0000000000000001) x)) (func31 (bvnot (func51 #x0000000000000001)) #x0000000000000001 x)))
7.4754597675055265
